c ind 1 2 3 4 5 6 7 8 9 10 11 12 13 14 15 16 17 18 19 20 21 22 23 24 25 26 27 28 29 30 31 32 33 34 35 36 37 38 39 40 41 42 43 44 45 46 47 48 49 50 51 0
p cnf 790 1459              
-37 7 -328 0
328 -331 0
-38 8 -329 0
329 -331 0
-39 9 -330 0
330 -331 0
331 -373 0
-38 -37 -332 0
332 -336 0
-37 333 0
-38 333 0
37 38 -333 0
-333 -39 -334 0
334 -336 0
39 333 -335 0
335 -336 0
336 -373 0
-40 7 -337 0
337 -340 0
-41 8 -338 0
338 -340 0
-42 9 -339 0
339 -340 0
340 -373 0
-41 -40 -341 0
341 -345 0
-40 342 0
-41 342 0
40 41 -342 0
-342 -42 -343 0
343 -345 0
42 342 -344 0
344 -345 0
345 -373 0
-43 1 -346 0
346 -349 0
-44 2 -347 0
347 -349 0
-45 3 -348 0
348 -349 0
349 -373 0
-44 -43 -350 0
350 -354 0
-43 351 0
-44 351 0
43 44 -351 0
-351 -45 -352 0
352 -354 0
45 351 -353 0
353 -354 0
354 -373 0
-46 4 -355 0
355 -358 0
-47 5 -356 0
356 -358 0
-48 6 -357 0
357 -358 0
358 -373 0
-47 -46 -359 0
359 -363 0
-46 360 0
-47 360 0
46 47 -360 0
-360 -48 -361 0
361 -363 0
48 360 -362 0
362 -363 0
363 -373 0
-49 4 -364 0
364 -367 0
-50 5 -365 0
365 -367 0
-51 6 -366 0
366 -367 0
367 -373 0
-50 -49 -368 0
368 -372 0
-49 369 0
-50 369 0
49 50 -369 0
-369 -51 -370 0
370 -372 0
51 369 -371 0
371 -372 0
372 -373 0
373 531 0
10 -374 0
40 -374 0
-10 -40 374 0
-374 401 0
19 -383 0
41 -383 0
-19 -41 383 0
-383 401 0
28 -392 0
42 -392 0
-28 -42 392 0
-392 401 0
374 383 392 -401 0
43 -446 0
46 -446 0
-43 -46 446 0
-446 457 0
10 -410 0
37 -410 0
-10 -37 410 0
-410 437 0
19 -419 0
38 -419 0
-19 -38 419 0
-419 437 0
28 -428 0
39 -428 0
-28 -39 428 0
-428 437 0
410 419 428 -437 0
437 -456 0
43 -448 0
48 -448 0
-43 -48 448 0
-448 -455 0
43 -447 0
47 -447 0
-43 -47 447 0
-447 -455 0
-446 -455 0
448 447 446 455 0
455 -456 0
-437 -455 456 0
-456 457 0
446 456 -457 0
-401 457 -476 0
476 -485 0
11 -375 0
40 -375 0
-11 -40 375 0
-375 402 0
20 -384 0
41 -384 0
-20 -41 384 0
-384 402 0
29 -393 0
42 -393 0
-29 -42 393 0
-393 402 0
375 384 393 -402 0
-447 459 0
11 -411 0
37 -411 0
-11 -37 411 0
-411 438 0
20 -420 0
38 -420 0
-20 -38 420 0
-420 438 0
29 -429 0
39 -429 0
-29 -39 429 0
-429 438 0
411 420 429 -438 0
438 -458 0
455 -458 0
-438 -455 458 0
-458 459 0
447 458 -459 0
-402 459 -477 0
477 -485 0
12 -376 0
40 -376 0
-12 -40 376 0
-376 403 0
21 -385 0
41 -385 0
-21 -41 385 0
-385 403 0
30 -394 0
42 -394 0
-30 -42 394 0
-394 403 0
376 385 394 -403 0
-448 461 0
12 -412 0
37 -412 0
-12 -37 412 0
-412 439 0
21 -421 0
38 -421 0
-21 -38 421 0
-421 439 0
30 -430 0
39 -430 0
-30 -39 430 0
-430 439 0
412 421 430 -439 0
439 -460 0
455 -460 0
-439 -455 460 0
-460 461 0
448 460 -461 0
-403 461 -478 0
478 -485 0
13 -377 0
40 -377 0
-13 -40 377 0
-377 404 0
22 -386 0
41 -386 0
-22 -41 386 0
-386 404 0
31 -395 0
42 -395 0
-31 -42 395 0
-395 404 0
377 386 395 -404 0
44 -449 0
46 -449 0
-44 -46 449 0
-449 464 0
13 -413 0
37 -413 0
-13 -37 413 0
-413 440 0
22 -422 0
38 -422 0
-22 -38 422 0
-422 440 0
31 -431 0
39 -431 0
-31 -39 431 0
-431 440 0
413 422 431 -440 0
440 -463 0
44 -451 0
48 -451 0
-44 -48 451 0
-451 -462 0
44 -450 0
47 -450 0
-44 -47 450 0
-450 -462 0
-449 -462 0
451 450 449 462 0
462 -463 0
-440 -462 463 0
-463 464 0
449 463 -464 0
-404 464 -479 0
479 -485 0
14 -378 0
40 -378 0
-14 -40 378 0
-378 405 0
23 -387 0
41 -387 0
-23 -41 387 0
-387 405 0
32 -396 0
42 -396 0
-32 -42 396 0
-396 405 0
378 387 396 -405 0
-450 466 0
14 -414 0
37 -414 0
-14 -37 414 0
-414 441 0
23 -423 0
38 -423 0
-23 -38 423 0
-423 441 0
32 -432 0
39 -432 0
-32 -39 432 0
-432 441 0
414 423 432 -441 0
441 -465 0
462 -465 0
-441 -462 465 0
-465 466 0
450 465 -466 0
-405 466 -480 0
480 -485 0
15 -379 0
40 -379 0
-15 -40 379 0
-379 406 0
24 -388 0
41 -388 0
-24 -41 388 0
-388 406 0
33 -397 0
42 -397 0
-33 -42 397 0
-397 406 0
379 388 397 -406 0
-451 468 0
15 -415 0
37 -415 0
-15 -37 415 0
-415 442 0
24 -424 0
38 -424 0
-24 -38 424 0
-424 442 0
33 -433 0
39 -433 0
-33 -39 433 0
-433 442 0
415 424 433 -442 0
442 -467 0
462 -467 0
-442 -462 467 0
-467 468 0
451 467 -468 0
-406 468 -481 0
481 -485 0
16 -380 0
40 -380 0
-16 -40 380 0
-380 407 0
25 -389 0
41 -389 0
-25 -41 389 0
-389 407 0
34 -398 0
42 -398 0
-34 -42 398 0
-398 407 0
380 389 398 -407 0
45 -452 0
46 -452 0
-45 -46 452 0
-452 471 0
16 -416 0
37 -416 0
-16 -37 416 0
-416 443 0
25 -425 0
38 -425 0
-25 -38 425 0
-425 443 0
34 -434 0
39 -434 0
-34 -39 434 0
-434 443 0
416 425 434 -443 0
443 -470 0
45 -454 0
48 -454 0
-45 -48 454 0
-454 -469 0
45 -453 0
47 -453 0
-45 -47 453 0
-453 -469 0
-452 -469 0
454 453 452 469 0
469 -470 0
-443 -469 470 0
-470 471 0
452 470 -471 0
-407 471 -482 0
482 -485 0
17 -381 0
40 -381 0
-17 -40 381 0
-381 408 0
26 -390 0
41 -390 0
-26 -41 390 0
-390 408 0
35 -399 0
42 -399 0
-35 -42 399 0
-399 408 0
381 390 399 -408 0
-453 473 0
17 -417 0
37 -417 0
-17 -37 417 0
-417 444 0
26 -426 0
38 -426 0
-26 -38 426 0
-426 444 0
35 -435 0
39 -435 0
-35 -39 435 0
-435 444 0
417 426 435 -444 0
444 -472 0
469 -472 0
-444 -469 472 0
-472 473 0
453 472 -473 0
-408 473 -483 0
483 -485 0
18 -382 0
40 -382 0
-18 -40 382 0
-382 409 0
27 -391 0
41 -391 0
-27 -41 391 0
-391 409 0
36 -400 0
42 -400 0
-36 -42 400 0
-400 409 0
382 391 400 -409 0
-454 475 0
18 -418 0
37 -418 0
-18 -37 418 0
-418 445 0
27 -427 0
38 -427 0
-27 -38 427 0
-427 445 0
36 -436 0
39 -436 0
-36 -39 436 0
-436 445 0
418 427 436 -445 0
445 -474 0
469 -474 0
-445 -469 474 0
-474 475 0
454 474 -475 0
-409 475 -484 0
484 -485 0
485 -496 0
-457 401 -486 0
486 -495 0
-459 402 -487 0
487 -495 0
-461 403 -488 0
488 -495 0
-464 404 -489 0
489 -495 0
-466 405 -490 0
490 -495 0
-468 406 -491 0
491 -495 0
-471 407 -492 0
492 -495 0
-473 408 -493 0
493 -495 0
-475 409 -494 0
494 -495 0
495 -496 0
496 -520 0
43 -497 0
401 -497 0
-43 -401 497 0
-497 506 0
44 -500 0
404 -500 0
-44 -404 500 0
-500 506 0
45 -503 0
407 -503 0
-45 -407 503 0
-503 506 0
497 500 503 -506 0
-506 509 0
43 -498 0
402 -498 0
-43 -402 498 0
-498 507 0
44 -501 0
405 -501 0
-44 -405 501 0
-501 507 0
45 -504 0
408 -504 0
-45 -408 504 0
-504 507 0
498 501 504 -507 0
-507 509 0
43 -499 0
403 -499 0
-43 -403 499 0
-499 508 0
44 -502 0
406 -502 0
-44 -406 502 0
-502 508 0
45 -505 0
409 -505 0
-45 -409 505 0
-505 508 0
499 502 505 -508 0
-508 509 0
-49 506 -510 0
510 -513 0
-50 507 -511 0
511 -513 0
-51 508 -512 0
512 -513 0
513 -518 0
-506 49 -514 0
514 -517 0
-507 50 -515 0
515 -517 0
-508 51 -516 0
516 -517 0
517 -518 0
-509 518 -519 0
519 -520 0
520 530 0
46 521 0
-49 521 0
47 522 0
-50 522 0
48 523 0
-51 523 0
-521 -522 -523 524 0
49 525 0
-46 525 0
50 526 0
-47 526 0
51 527 0
-48 527 0
-525 -526 -527 528 0
-524 -528 529 0
-529 530 0
-530 531 0
-531 -532 0
1 -52 0
4 -52 0
-10 52 -61 0
61 -70 0
1 -53 0
5 -53 0
-11 53 -62 0
62 -70 0
1 -54 0
6 -54 0
-12 54 -63 0
63 -70 0
2 -55 0
4 -55 0
-13 55 -64 0
64 -70 0
2 -56 0
5 -56 0
-14 56 -65 0
65 -70 0
2 -57 0
6 -57 0
-15 57 -66 0
66 -70 0
3 -58 0
4 -58 0
-16 58 -67 0
67 -70 0
3 -59 0
5 -59 0
-17 59 -68 0
68 -70 0
3 -60 0
6 -60 0
-18 60 -69 0
69 -70 0
70 -105 0
-11 -10 -71 0
71 -75 0
-10 72 0
-11 72 0
-72 -12 -73 0
73 -75 0
75 -80 0
-10 4 -76 0
76 -79 0
-11 5 -77 0
77 -79 0
-12 6 -78 0
78 -79 0
79 -80 0
-1 80 -81 0
81 -104 0
-14 -13 -82 0
82 -86 0
-13 83 0
-14 83 0
-83 -15 -84 0
84 -86 0
86 -91 0
-13 4 -87 0
87 -90 0
-14 5 -88 0
88 -90 0
-15 6 -89 0
89 -90 0
90 -91 0
-2 91 -92 0
92 -104 0
-17 -16 -93 0
93 -97 0
-16 94 0
-17 94 0
-94 -18 -95 0
95 -97 0
97 -102 0
-16 4 -98 0
98 -101 0
-17 5 -99 0
99 -101 0
-18 6 -100 0
100 -101 0
101 -102 0
-3 102 -103 0
103 -104 0
104 -105 0
105 -122 0
-10 1 -106 0
106 -109 0
-13 2 -107 0
107 -109 0
-16 3 -108 0
108 -109 0
-4 109 -110 0
110 -121 0
-11 1 -111 0
111 -114 0
-14 2 -112 0
112 -114 0
-17 3 -113 0
113 -114 0
-5 114 -115 0
115 -121 0
-12 1 -116 0
116 -119 0
-15 2 -117 0
117 -119 0
-18 3 -118 0
118 -119 0
-6 119 -120 0
120 -121 0
121 -122 0
-7 122 -123 0
123 -250 0
-19 52 -124 0
124 -133 0
-20 53 -125 0
125 -133 0
-21 54 -126 0
126 -133 0
-22 55 -127 0
127 -133 0
-23 56 -128 0
128 -133 0
-24 57 -129 0
129 -133 0
-25 58 -130 0
130 -133 0
-26 59 -131 0
131 -133 0
-27 60 -132 0
132 -133 0
133 -168 0
-20 -19 -134 0
134 -138 0
-19 135 0
-20 135 0
-135 -21 -136 0
136 -138 0
138 -143 0
-19 4 -139 0
139 -142 0
-20 5 -140 0
140 -142 0
-21 6 -141 0
141 -142 0
142 -143 0
-1 143 -144 0
144 -167 0
-23 -22 -145 0
145 -149 0
-22 146 0
-23 146 0
-146 -24 -147 0
147 -149 0
149 -154 0
-22 4 -150 0
150 -153 0
-23 5 -151 0
151 -153 0
-24 6 -152 0
152 -153 0
153 -154 0
-2 154 -155 0
155 -167 0
-26 -25 -156 0
156 -160 0
-25 157 0
-26 157 0
-157 -27 -158 0
158 -160 0
160 -165 0
-25 4 -161 0
161 -164 0
-26 5 -162 0
162 -164 0
-27 6 -163 0
163 -164 0
164 -165 0
-3 165 -166 0
166 -167 0
167 -168 0
168 -185 0
-19 1 -169 0
169 -172 0
-22 2 -170 0
170 -172 0
-25 3 -171 0
171 -172 0
-4 172 -173 0
173 -184 0
-20 1 -174 0
174 -177 0
-23 2 -175 0
175 -177 0
-26 3 -176 0
176 -177 0
-5 177 -178 0
178 -184 0
-21 1 -179 0
179 -182 0
-24 2 -180 0
180 -182 0
-27 3 -181 0
181 -182 0
-6 182 -183 0
183 -184 0
184 -185 0
-8 185 -186 0
186 -250 0
-28 52 -187 0
187 -196 0
-29 53 -188 0
188 -196 0
-30 54 -189 0
189 -196 0
-31 55 -190 0
190 -196 0
-32 56 -191 0
191 -196 0
-33 57 -192 0
192 -196 0
-34 58 -193 0
193 -196 0
-35 59 -194 0
194 -196 0
-36 60 -195 0
195 -196 0
196 -231 0
-29 -28 -197 0
197 -201 0
-28 198 0
-29 198 0
-198 -30 -199 0
199 -201 0
201 -206 0
-28 4 -202 0
202 -205 0
-29 5 -203 0
203 -205 0
-30 6 -204 0
204 -205 0
205 -206 0
-1 206 -207 0
207 -230 0
-32 -31 -208 0
208 -212 0
-31 209 0
-32 209 0
-209 -33 -210 0
210 -212 0
212 -217 0
-31 4 -213 0
213 -216 0
-32 5 -214 0
214 -216 0
-33 6 -215 0
215 -216 0
216 -217 0
-2 217 -218 0
218 -230 0
-35 -34 -219 0
219 -223 0
-34 220 0
-35 220 0
-220 -36 -221 0
221 -223 0
223 -228 0
-34 4 -224 0
224 -227 0
-35 5 -225 0
225 -227 0
-36 6 -226 0
226 -227 0
227 -228 0
-3 228 -229 0
229 -230 0
230 -231 0
231 -248 0
-28 1 -232 0
232 -235 0
-31 2 -233 0
233 -235 0
-34 3 -234 0
234 -235 0
-4 235 -236 0
236 -247 0
-29 1 -237 0
237 -240 0
-32 2 -238 0
238 -240 0
-35 3 -239 0
239 -240 0
-5 240 -241 0
241 -247 0
-30 1 -242 0
242 -245 0
-33 2 -243 0
243 -245 0
-36 3 -244 0
244 -245 0
-6 245 -246 0
246 -247 0
247 -248 0
-9 248 -249 0
249 -250 0
250 -532 0
-12 74 0
-72 74 0
-74 251 0
-15 85 0
-83 85 0
-85 251 0
-18 96 0
-94 96 0
-96 251 0
-251 7 -254 0
254 -257 0
-21 137 0
-135 137 0
-137 252 0
-24 148 0
-146 148 0
-148 252 0
-27 159 0
-157 159 0
-159 252 0
-252 8 -255 0
255 -257 0
-30 200 0
-198 200 0
-200 253 0
-33 211 0
-209 211 0
-211 253 0
-36 222 0
-220 222 0
-222 253 0
-253 9 -256 0
256 -257 0
257 -532 0
10 259 0
-19 259 0
-10 19 -259 0
11 260 0
-20 260 0
-11 20 -260 0
12 261 0
-21 261 0
-12 21 -261 0
13 262 0
-22 262 0
-13 22 -262 0
14 263 0
-23 263 0
-14 23 -263 0
15 264 0
-24 264 0
-15 24 -264 0
16 265 0
-25 265 0
-16 25 -265 0
17 266 0
-26 266 0
-17 26 -266 0
18 267 0
-27 267 0
-18 27 -267 0
-259 -260 -261 -262 -263 -264 -265 -266 -267 268 0
19 269 0
-10 269 0
20 270 0
-11 270 0
21 271 0
-12 271 0
22 272 0
-13 272 0
23 273 0
-14 273 0
24 274 0
-15 274 0
25 275 0
-16 275 0
26 276 0
-17 276 0
27 277 0
-18 277 0
-269 -270 -271 -272 -273 -274 -275 -276 -277 278 0
-268 -278 279 0
-8 -7 -258 0
-279 258 -280 0
280 -327 0
10 282 0
-28 282 0
11 283 0
-29 283 0
12 284 0
-30 284 0
13 285 0
-31 285 0
14 286 0
-32 286 0
15 287 0
-33 287 0
16 288 0
-34 288 0
17 289 0
-35 289 0
18 290 0
-36 290 0
-282 -283 -284 -285 -286 -287 -288 -289 -290 291 0
28 292 0
-10 292 0
29 293 0
-11 293 0
30 294 0
-12 294 0
31 295 0
-13 295 0
32 296 0
-14 296 0
33 297 0
-15 297 0
34 298 0
-16 298 0
35 299 0
-17 299 0
36 300 0
-18 300 0
-292 -293 -294 -295 -296 -297 -298 -299 -300 301 0
-291 -301 302 0
-9 -7 -281 0
-302 281 -303 0
303 -327 0
19 305 0
-28 305 0
-19 28 -305 0
20 306 0
-29 306 0
-20 29 -306 0
21 307 0
-30 307 0
-21 30 -307 0
22 308 0
-31 308 0
-22 31 -308 0
23 309 0
-32 309 0
-23 32 -309 0
24 310 0
-33 310 0
-24 33 -310 0
25 311 0
-34 311 0
-25 34 -311 0
26 312 0
-35 312 0
-26 35 -312 0
27 313 0
-36 313 0
-27 36 -313 0
-305 -306 -307 -308 -309 -310 -311 -312 -313 314 0
28 315 0
-19 315 0
29 316 0
-20 316 0
30 317 0
-21 317 0
31 318 0
-22 318 0
32 319 0
-23 319 0
33 320 0
-24 320 0
34 321 0
-25 321 0
35 322 0
-26 322 0
36 323 0
-27 323 0
-315 -316 -317 -318 -319 -320 -321 -322 -323 324 0
-314 -324 325 0
-9 -8 -304 0
-325 304 -326 0
326 -327 0
327 -532 0
-37 38 -533 0
533 -570 0
-37 -38 534 0
37 38 534 0
-38 38 534 0
-40 41 -535 0
-534 535 -536 0
536 -570 0
-40 -41 537 0
40 41 537 0
-41 41 537 0
-534 -537 538 0
-7 8 -539 0
-538 539 -540 0
540 -570 0
-7 -8 541 0
7 8 541 0
-8 8 541 0
-538 -541 542 0
-542 259 -543 0
543 -570 0
-10 -19 544 0
10 19 544 0
-19 19 544 0
-542 -544 545 0
-545 260 -546 0
546 -570 0
-11 -20 547 0
11 20 547 0
-20 20 547 0
-545 -547 548 0
-548 261 -549 0
549 -570 0
-12 -21 550 0
12 21 550 0
-21 21 550 0
-548 -550 551 0
-551 262 -552 0
552 -570 0
-13 -22 553 0
13 22 553 0
-22 22 553 0
-551 -553 554 0
-554 263 -555 0
555 -570 0
-14 -23 556 0
14 23 556 0
-23 23 556 0
-554 -556 557 0
-557 264 -558 0
558 -570 0
-15 -24 559 0
15 24 559 0
-24 24 559 0
-557 -559 560 0
-560 265 -561 0
561 -570 0
-16 -25 562 0
16 25 562 0
-25 25 562 0
-560 -562 563 0
-563 266 -564 0
564 -570 0
-17 -26 565 0
17 26 565 0
-26 26 565 0
-563 -565 566 0
-566 267 -567 0
567 -570 0
570 -789 0
-38 39 -571 0
571 -608 0
-38 -39 572 0
38 39 572 0
-39 39 572 0
-41 42 -573 0
-572 573 -574 0
574 -608 0
-41 -42 575 0
41 42 575 0
-42 42 575 0
-572 -575 576 0
-8 9 -577 0
-576 577 -578 0
578 -608 0
-8 -9 579 0
8 9 579 0
-9 9 579 0
-576 -579 580 0
-580 305 -581 0
581 -608 0
-19 -28 582 0
19 28 582 0
-28 28 582 0
-580 -582 583 0
-583 306 -584 0
584 -608 0
-20 -29 585 0
20 29 585 0
-29 29 585 0
-583 -585 586 0
-586 307 -587 0
587 -608 0
-21 -30 588 0
21 30 588 0
-30 30 588 0
-586 -588 589 0
-589 308 -590 0
590 -608 0
-22 -31 591 0
22 31 591 0
-31 31 591 0
-589 -591 592 0
-592 309 -593 0
593 -608 0
-23 -32 594 0
23 32 594 0
-32 32 594 0
-592 -594 595 0
-595 310 -596 0
596 -608 0
-24 -33 597 0
24 33 597 0
-33 33 597 0
-595 -597 598 0
-598 311 -599 0
599 -608 0
-25 -34 600 0
25 34 600 0
-34 34 600 0
-598 -600 601 0
-601 312 -602 0
602 -608 0
-26 -35 603 0
26 35 603 0
-35 35 603 0
-601 -603 604 0
-604 313 -605 0
605 -608 0
608 -789 0
-46 47 -609 0
609 -655 0
-46 -47 610 0
46 47 610 0
-47 47 610 0
-49 50 -611 0
-610 611 -612 0
612 -655 0
-49 -50 613 0
49 50 613 0
-50 50 613 0
-610 -613 614 0
-4 5 -615 0
-614 615 -616 0
616 -655 0
-4 -5 617 0
4 5 617 0
-5 5 617 0
-614 -617 618 0
-10 11 -619 0
-618 619 -620 0
620 -655 0
-10 -11 621 0
10 11 621 0
-11 11 621 0
-618 -621 622 0
-13 14 -623 0
-622 623 -624 0
624 -655 0
-13 -14 625 0
13 14 625 0
-14 14 625 0
-622 -625 626 0
-16 17 -627 0
-626 627 -628 0
628 -655 0
-16 -17 629 0
16 17 629 0
-17 17 629 0
-626 -629 630 0
-19 20 -631 0
-630 631 -632 0
632 -655 0
-19 -20 633 0
19 20 633 0
-20 20 633 0
-630 -633 634 0
-22 23 -635 0
-634 635 -636 0
636 -655 0
-22 -23 637 0
22 23 637 0
-23 23 637 0
-634 -637 638 0
-25 26 -639 0
-638 639 -640 0
640 -655 0
-25 -26 641 0
25 26 641 0
-26 26 641 0
-638 -641 642 0
-28 29 -643 0
-642 643 -644 0
644 -655 0
-28 -29 645 0
28 29 645 0
-29 29 645 0
-642 -645 646 0
-31 32 -647 0
-646 647 -648 0
648 -655 0
-31 -32 649 0
31 32 649 0
-32 32 649 0
-646 -649 650 0
-34 35 -651 0
-650 651 -652 0
652 -655 0
655 -789 0
-47 48 -656 0
656 -702 0
-47 -48 657 0
47 48 657 0
-48 48 657 0
-50 51 -658 0
-657 658 -659 0
659 -702 0
-50 -51 660 0
50 51 660 0
-51 51 660 0
-657 -660 661 0
-5 6 -662 0
-661 662 -663 0
663 -702 0
-5 -6 664 0
5 6 664 0
-6 6 664 0
-661 -664 665 0
-11 12 -666 0
-665 666 -667 0
667 -702 0
-11 -12 668 0
11 12 668 0
-12 12 668 0
-665 -668 669 0
-14 15 -670 0
-669 670 -671 0
671 -702 0
-14 -15 672 0
14 15 672 0
-15 15 672 0
-669 -672 673 0
-17 18 -674 0
-673 674 -675 0
675 -702 0
-17 -18 676 0
17 18 676 0
-18 18 676 0
-673 -676 677 0
-20 21 -678 0
-677 678 -679 0
679 -702 0
-20 -21 680 0
20 21 680 0
-21 21 680 0
-677 -680 681 0
-23 24 -682 0
-681 682 -683 0
683 -702 0
-23 -24 684 0
23 24 684 0
-24 24 684 0
-681 -684 685 0
-26 27 -686 0
-685 686 -687 0
687 -702 0
-26 -27 688 0
26 27 688 0
-27 27 688 0
-685 -688 689 0
-29 30 -690 0
-689 690 -691 0
691 -702 0
-29 -30 692 0
29 30 692 0
-30 30 692 0
-689 -692 693 0
-32 33 -694 0
-693 694 -695 0
695 -702 0
-32 -33 696 0
32 33 696 0
-33 33 696 0
-693 -696 697 0
-35 36 -698 0
-697 698 -699 0
699 -702 0
702 -789 0
-43 44 -703 0
703 -745 0
-43 -44 704 0
43 44 704 0
-44 44 704 0
-1 2 -705 0
-704 705 -706 0
706 -745 0
-1 -2 707 0
1 2 707 0
-2 2 707 0
-704 -707 708 0
-10 13 -709 0
-708 709 -710 0
710 -745 0
-10 -13 711 0
10 13 711 0
-13 13 711 0
-708 -711 712 0
-11 14 -713 0
-712 713 -714 0
714 -745 0
-11 -14 715 0
11 14 715 0
-14 14 715 0
-712 -715 716 0
-12 15 -717 0
-716 717 -718 0
718 -745 0
-12 -15 719 0
12 15 719 0
-15 15 719 0
-716 -719 720 0
-19 22 -721 0
-720 721 -722 0
722 -745 0
-19 -22 723 0
19 22 723 0
-22 22 723 0
-720 -723 724 0
-20 23 -725 0
-724 725 -726 0
726 -745 0
-20 -23 727 0
20 23 727 0
-23 23 727 0
-724 -727 728 0
-21 24 -729 0
-728 729 -730 0
730 -745 0
-21 -24 731 0
21 24 731 0
-24 24 731 0
-728 -731 732 0
-28 31 -733 0
-732 733 -734 0
734 -745 0
-28 -31 735 0
28 31 735 0
-31 31 735 0
-732 -735 736 0
-29 32 -737 0
-736 737 -738 0
738 -745 0
-29 -32 739 0
29 32 739 0
-32 32 739 0
-736 -739 740 0
-30 33 -741 0
-740 741 -742 0
742 -745 0
745 -789 0
-44 45 -746 0
746 -788 0
-44 -45 747 0
44 45 747 0
-45 45 747 0
-2 3 -748 0
-747 748 -749 0
749 -788 0
-2 -3 750 0
2 3 750 0
-3 3 750 0
-747 -750 751 0
-13 16 -752 0
-751 752 -753 0
753 -788 0
-13 -16 754 0
13 16 754 0
-16 16 754 0
-751 -754 755 0
-14 17 -756 0
-755 756 -757 0
757 -788 0
-14 -17 758 0
14 17 758 0
-17 17 758 0
-755 -758 759 0
-15 18 -760 0
-759 760 -761 0
761 -788 0
-15 -18 762 0
15 18 762 0
-18 18 762 0
-759 -762 763 0
-22 25 -764 0
-763 764 -765 0
765 -788 0
-22 -25 766 0
22 25 766 0
-25 25 766 0
-763 -766 767 0
-23 26 -768 0
-767 768 -769 0
769 -788 0
-23 -26 770 0
23 26 770 0
-26 26 770 0
-767 -770 771 0
-24 27 -772 0
-771 772 -773 0
773 -788 0
-24 -27 774 0
24 27 774 0
-27 27 774 0
-771 -774 775 0
-31 34 -776 0
-775 776 -777 0
777 -788 0
-31 -34 778 0
31 34 778 0
-34 34 778 0
-775 -778 779 0
-32 35 -780 0
-779 780 -781 0
781 -788 0
-32 -35 782 0
32 35 782 0
-35 35 782 0
-779 -782 783 0
-33 36 -784 0
-783 784 -785 0
785 -788 0
788 -789 0
532 0
789 0
